c CNF-Signature AND_16
c 
c $p 16 1
c $m (1,2,3,4,5,6,7,8,9,10,11,12,13,14,15,16,17)
c $i 1
c $i 2
c $i 3
c $i 4
c $i 5
c $i 6
c $i 7
c $i 8
c $i 9
c $i 10
c $i 11
c $i 12
c $i 13
c $i 14
c $i 15
c $i 16
c $o 17
p cnf 17 17
1 -17 0
2 -17 0
3 -17 0
4 -17 0
5 -17 0
6 -17 0
7 -17 0
8 -17 0
9 -17 0
10 -17 0
11 -17 0
12 -17 0
13 -17 0
14 -17 0
15 -17 0
16 -17 0
-1 -2 -3 -4 -5 -6 -7 -8 -9 -10 -11 -12 -13 -14 -15 -16 17 0
